
<<< setup

Version identifier: 22.1.1.0 | 2022-11-27 | 9160aff4d
Tried aggregator 1 time.
LP Presolve eliminated 2059 rows and 1992 columns.
Aggregator did 2 substitutions.
Reduced LP has 31 rows, 74 columns, and 131 nonzeros.
Presolve time = 0.00 sec. (3.91 ticks)
Initializing dual steep norms . . .

Iteration log . . .
Iteration:     1   Dual infeasibility =           371.268365
Iteration:    44   Dual objective     =          1287.685343
main returns 0

<<< main


<<< done

